\ Model Knapsack
\ LP format - for model browsing. Use MPS format to capture full model detail.
Maximize
  0.3333333333333333 C4 + 0.5 C5 + 0.5 C6 + 0.5 C7 + 0.5 C8
   + 0.6666666666666667 C9 + C10 + C11 + C12 + C13 + C14 + 0 C15 + 0 C16
   + 0 C17 + 0 C18 + 0 C19 + 0 C20 + 0 C21 + 0 C22 + 0 C23 + 0 C24 + 0 C25
   + 0 C26 + 0 C27 + 0 C28 + 0 C29
Subject To
 R0: C0 + 2 C1 + 3 C2 + 4 C3 + 5 C4 + 6 C5 + 7 C6 + 8 C7 + 9 C8 + 10 C9
   + 11 C10 + 12 C11 + 13 C12 + 14 C13 + 15 C14 <= 15
Bounds
Generals
 C0 C1 C2 C3 C4 C5 C6 C7 C8 C9 C10 C11 C12 C13 C14
End
